p edge 600 2334
e 1 2 1
e 1 600 1
e 1 3 1
e 1 599 1
e 1 4 1
e 1 598 1
e 1 496 1
e 2 3 1
e 2 4 1
e 2 600 1
e 2 5 1
e 2 599 1
e 2 62 1
e 3 4 1
e 3 5 1
e 3 6 1
e 3 600 1
e 3 413 1
e 3 371 1
e 3 21 1
e 3 185 1
e 3 527 1
e 4 5 1
e 4 6 1
e 4 7 1
e 4 42 1
e 5 6 1
e 5 7 1
e 5 8 1
e 5 535 1
e 5 202 1
e 5 310 1
e 5 549 1
e 6 7 1
e 6 8 1
e 6 9 1
e 6 295 1
e 7 8 1
e 7 9 1
e 7 10 1
e 7 141 1
e 7 519 1
e 8 9 1
e 8 10 1
e 8 11 1
e 8 30 1
e 8 253 1
e 9 10 1
e 9 11 1
e 9 12 1
e 9 534 1
e 9 40 1
e 10 11 1
e 10 12 1
e 10 13 1
e 11 12 1
e 11 13 1
e 11 14 1
e 11 60 1
e 11 310 1
e 11 213 1
e 11 302 1
e 12 13 1
e 12 14 1
e 12 15 1
e 12 321 1
e 13 14 1
e 13 15 1
e 13 16 1
e 14 15 1
e 14 16 1
e 14 17 1
e 14 394 1
e 14 307 1
e 14 201 1
e 15 16 1
e 15 17 1
e 15 18 1
e 15 238 1
e 16 17 1
e 16 18 1
e 16 19 1
e 16 491 1
e 16 28 1
e 16 216 1
e 16 419 1
e 16 525 1
e 17 18 1
e 17 19 1
e 17 20 1
e 18 19 1
e 18 20 1
e 18 21 1
e 18 50 1
e 18 124 1
e 18 328 1
e 18 480 1
e 19 20 1
e 19 21 1
e 19 22 1
e 19 330 1
e 20 21 1
e 20 22 1
e 20 23 1
e 20 236 1
e 20 303 1
e 21 22 1
e 21 23 1
e 21 24 1
e 21 160 1
e 22 23 1
e 22 24 1
e 22 25 1
e 22 50 1
e 22 71 1
e 22 319 1
e 23 24 1
e 23 25 1
e 23 26 1
e 23 542 1
e 24 25 1
e 24 26 1
e 24 27 1
e 24 60 1
e 25 26 1
e 25 27 1
e 25 28 1
e 25 198 1
e 25 281 1
e 26 27 1
e 26 28 1
e 26 29 1
e 26 33 1
e 26 596 1
e 27 28 1
e 27 29 1
e 27 30 1
e 28 29 1
e 28 30 1
e 28 31 1
e 29 30 1
e 29 31 1
e 29 32 1
e 29 322 1
e 29 546 1
e 29 558 1
e 30 31 1
e 30 32 1
e 30 33 1
e 30 34 1
e 30 150 1
e 31 32 1
e 31 33 1
e 31 34 1
e 31 570 1
e 32 33 1
e 32 34 1
e 32 35 1
e 33 34 1
e 33 35 1
e 33 36 1
e 33 282 1
e 33 442 1
e 33 510 1
e 33 456 1
e 34 35 1
e 34 36 1
e 34 37 1
e 34 260 1
e 35 36 1
e 35 37 1
e 35 38 1
e 35 298 1
e 35 285 1
e 36 37 1
e 36 38 1
e 36 39 1
e 36 446 1
e 36 158 1
e 36 348 1
e 37 38 1
e 37 39 1
e 37 40 1
e 37 201 1
e 38 39 1
e 38 40 1
e 38 41 1
e 38 367 1
e 38 525 1
e 38 552 1
e 39 40 1
e 39 41 1
e 39 42 1
e 39 486 1
e 39 112 1
e 40 41 1
e 40 42 1
e 40 43 1
e 40 232 1
e 41 42 1
e 41 43 1
e 41 44 1
e 41 88 1
e 42 43 1
e 42 44 1
e 42 45 1
e 42 342 1
e 43 44 1
e 43 45 1
e 43 46 1
e 43 561 1
e 43 70 1
e 44 45 1
e 44 46 1
e 44 47 1
e 44 333 1
e 44 93 1
e 44 127 1
e 45 46 1
e 45 47 1
e 45 48 1
e 45 164 1
e 46 47 1
e 46 48 1
e 46 49 1
e 46 279 1
e 46 207 1
e 47 48 1
e 47 49 1
e 47 50 1
e 47 420 1
e 47 313 1
e 47 417 1
e 47 443 1
e 48 49 1
e 48 50 1
e 48 51 1
e 48 302 1
e 48 578 1
e 49 50 1
e 49 51 1
e 49 52 1
e 49 331 1
e 50 51 1
e 50 52 1
e 50 53 1
e 51 52 1
e 51 53 1
e 51 54 1
e 52 53 1
e 52 54 1
e 52 55 1
e 52 595 1
e 52 477 1
e 53 54 1
e 53 55 1
e 53 56 1
e 53 447 1
e 53 231 1
e 54 55 1
e 54 56 1
e 54 57 1
e 54 75 1
e 54 171 1
e 55 56 1
e 55 57 1
e 55 58 1
e 55 554 1
e 55 424 1
e 56 57 1
e 56 58 1
e 56 59 1
e 56 454 1
e 56 244 1
e 57 58 1
e 57 59 1
e 57 60 1
e 57 107 1
e 57 401 1
e 57 249 1
e 57 442 1
e 58 59 1
e 58 60 1
e 58 61 1
e 58 141 1
e 58 86 1
e 58 189 1
e 58 584 1
e 59 60 1
e 59 61 1
e 59 62 1
e 59 543 1
e 60 61 1
e 60 62 1
e 60 63 1
e 60 92 1
e 60 156 1
e 60 330 1
e 61 62 1
e 61 63 1
e 61 64 1
e 61 192 1
e 61 196 1
e 62 63 1
e 62 64 1
e 62 65 1
e 62 103 1
e 62 260 1
e 63 64 1
e 63 65 1
e 63 66 1
e 63 428 1
e 64 65 1
e 64 66 1
e 64 67 1
e 64 175 1
e 65 66 1
e 65 67 1
e 65 68 1
e 65 258 1
e 65 142 1
e 65 229 1
e 66 67 1
e 66 68 1
e 66 69 1
e 66 343 1
e 66 422 1
e 67 68 1
e 67 69 1
e 67 70 1
e 68 69 1
e 68 70 1
e 68 71 1
e 68 122 1
e 69 70 1
e 69 71 1
e 69 72 1
e 69 201 1
e 69 225 1
e 69 203 1
e 69 335 1
e 70 71 1
e 70 72 1
e 70 73 1
e 71 72 1
e 71 73 1
e 71 74 1
e 71 469 1
e 72 73 1
e 72 74 1
e 72 75 1
e 72 335 1
e 73 74 1
e 73 75 1
e 73 76 1
e 74 75 1
e 74 76 1
e 74 77 1
e 75 76 1
e 75 77 1
e 75 78 1
e 75 139 1
e 76 77 1
e 76 78 1
e 76 79 1
e 76 594 1
e 76 173 1
e 77 78 1
e 77 79 1
e 77 80 1
e 77 313 1
e 77 305 1
e 78 79 1
e 78 80 1
e 78 81 1
e 78 86 1
e 78 585 1
e 79 80 1
e 79 81 1
e 79 82 1
e 79 105 1
e 80 81 1
e 80 82 1
e 80 83 1
e 80 355 1
e 80 440 1
e 80 215 1
e 81 82 1
e 81 83 1
e 81 84 1
e 82 83 1
e 82 84 1
e 82 85 1
e 82 92 1
e 82 466 1
e 82 342 1
e 83 84 1
e 83 85 1
e 83 86 1
e 83 188 1
e 83 368 1
e 84 85 1
e 84 86 1
e 84 87 1
e 85 86 1
e 85 87 1
e 85 88 1
e 86 87 1
e 86 88 1
e 86 89 1
e 87 88 1
e 87 89 1
e 87 90 1
e 87 536 1
e 87 504 1
e 87 482 1
e 88 89 1
e 88 90 1
e 88 91 1
e 88 304 1
e 88 133 1
e 88 404 1
e 89 90 1
e 89 91 1
e 89 92 1
e 90 91 1
e 90 92 1
e 90 93 1
e 90 434 1
e 91 92 1
e 91 93 1
e 91 94 1
e 91 275 1
e 92 93 1
e 92 94 1
e 92 95 1
e 92 237 1
e 92 379 1
e 93 94 1
e 93 95 1
e 93 96 1
e 93 550 1
e 94 95 1
e 94 96 1
e 94 97 1
e 94 189 1
e 94 432 1
e 94 548 1
e 95 96 1
e 95 97 1
e 95 98 1
e 95 417 1
e 95 377 1
e 96 97 1
e 96 98 1
e 96 99 1
e 96 538 1
e 96 295 1
e 97 98 1
e 97 99 1
e 97 100 1
e 98 99 1
e 98 100 1
e 98 101 1
e 98 529 1
e 98 557 1
e 99 100 1
e 99 101 1
e 99 102 1
e 100 101 1
e 100 102 1
e 100 103 1
e 100 378 1
e 100 442 1
e 101 102 1
e 101 103 1
e 101 104 1
e 101 372 1
e 102 103 1
e 102 104 1
e 102 105 1
e 103 104 1
e 103 105 1
e 103 106 1
e 103 372 1
e 103 465 1
e 104 105 1
e 104 106 1
e 104 107 1
e 104 162 1
e 105 106 1
e 105 107 1
e 105 108 1
e 105 231 1
e 106 107 1
e 106 108 1
e 106 109 1
e 106 196 1
e 107 108 1
e 107 109 1
e 107 110 1
e 107 600 1
e 107 273 1
e 107 190 1
e 107 505 1
e 107 581 1
e 108 109 1
e 108 110 1
e 108 111 1
e 108 292 1
e 108 126 1
e 108 298 1
e 108 565 1
e 109 110 1
e 109 111 1
e 109 112 1
e 110 111 1
e 110 112 1
e 110 113 1
e 110 405 1
e 110 588 1
e 111 112 1
e 111 113 1
e 111 114 1
e 112 113 1
e 112 114 1
e 112 115 1
e 112 318 1
e 113 114 1
e 113 115 1
e 113 116 1
e 113 418 1
e 114 115 1
e 114 116 1
e 114 117 1
e 114 198 1
e 114 462 1
e 115 116 1
e 115 117 1
e 115 118 1
e 115 206 1
e 115 186 1
e 116 117 1
e 116 118 1
e 116 119 1
e 116 256 1
e 116 306 1
e 117 118 1
e 117 119 1
e 117 120 1
e 117 349 1
e 117 358 1
e 118 119 1
e 118 120 1
e 118 121 1
e 118 441 1
e 119 120 1
e 119 121 1
e 119 122 1
e 119 484 1
e 120 121 1
e 120 122 1
e 120 123 1
e 120 571 1
e 120 370 1
e 120 404 1
e 121 122 1
e 121 123 1
e 121 124 1
e 121 212 1
e 121 575 1
e 121 172 1
e 122 123 1
e 122 124 1
e 122 125 1
e 123 124 1
e 123 125 1
e 123 126 1
e 124 125 1
e 124 126 1
e 124 127 1
e 124 299 1
e 125 126 1
e 125 127 1
e 125 128 1
e 126 127 1
e 126 128 1
e 126 129 1
e 126 138 1
e 126 391 1
e 127 128 1
e 127 129 1
e 127 130 1
e 127 225 1
e 128 129 1
e 128 130 1
e 128 131 1
e 129 130 1
e 129 131 1
e 129 132 1
e 129 449 1
e 130 131 1
e 130 132 1
e 130 133 1
e 130 393 1
e 131 132 1
e 131 133 1
e 131 134 1
e 131 404 1
e 132 133 1
e 132 134 1
e 132 135 1
e 132 157 1
e 133 134 1
e 133 135 1
e 133 136 1
e 133 225 1
e 133 297 1
e 133 408 1
e 133 421 1
e 134 135 1
e 134 136 1
e 134 137 1
e 134 377 1
e 134 389 1
e 135 136 1
e 135 137 1
e 135 138 1
e 136 137 1
e 136 138 1
e 136 139 1
e 136 476 1
e 136 350 1
e 137 138 1
e 137 139 1
e 137 140 1
e 137 297 1
e 138 139 1
e 138 140 1
e 138 141 1
e 138 535 1
e 138 163 1
e 139 140 1
e 139 141 1
e 139 142 1
e 139 373 1
e 140 141 1
e 140 142 1
e 140 143 1
e 140 403 1
e 140 235 1
e 141 142 1
e 141 143 1
e 141 144 1
e 141 504 1
e 142 143 1
e 142 144 1
e 142 145 1
e 142 292 1
e 143 144 1
e 143 145 1
e 143 146 1
e 143 543 1
e 144 145 1
e 144 146 1
e 144 147 1
e 145 146 1
e 145 147 1
e 145 148 1
e 145 340 1
e 146 147 1
e 146 148 1
e 146 149 1
e 146 176 1
e 147 148 1
e 147 149 1
e 147 150 1
e 147 344 1
e 148 149 1
e 148 150 1
e 148 151 1
e 148 351 1
e 148 564 1
e 149 150 1
e 149 151 1
e 149 152 1
e 150 151 1
e 150 152 1
e 150 153 1
e 150 535 1
e 151 152 1
e 151 153 1
e 151 154 1
e 152 153 1
e 152 154 1
e 152 155 1
e 153 154 1
e 153 155 1
e 153 156 1
e 153 533 1
e 154 155 1
e 154 156 1
e 154 157 1
e 154 383 1
e 154 528 1
e 154 320 1
e 155 156 1
e 155 157 1
e 155 158 1
e 156 157 1
e 156 158 1
e 156 159 1
e 157 158 1
e 157 159 1
e 157 160 1
e 157 452 1
e 157 325 1
e 157 525 1
e 157 392 1
e 158 159 1
e 158 160 1
e 158 161 1
e 158 427 1
e 159 160 1
e 159 161 1
e 159 162 1
e 159 533 1
e 159 345 1
e 160 161 1
e 160 162 1
e 160 163 1
e 160 218 1
e 161 162 1
e 161 163 1
e 161 164 1
e 161 592 1
e 161 559 1
e 162 163 1
e 162 164 1
e 162 165 1
e 162 384 1
e 163 164 1
e 163 165 1
e 163 166 1
e 163 383 1
e 164 165 1
e 164 166 1
e 164 167 1
e 164 504 1
e 164 533 1
e 165 166 1
e 165 167 1
e 165 168 1
e 165 180 1
e 165 414 1
e 165 355 1
e 166 167 1
e 166 168 1
e 166 169 1
e 166 453 1
e 166 375 1
e 166 294 1
e 166 561 1
e 167 168 1
e 167 169 1
e 167 170 1
e 167 311 1
e 168 169 1
e 168 170 1
e 168 171 1
e 168 385 1
e 168 352 1
e 169 170 1
e 169 171 1
e 169 172 1
e 170 171 1
e 170 172 1
e 170 173 1
e 170 379 1
e 171 172 1
e 171 173 1
e 171 174 1
e 171 207 1
e 171 562 1
e 172 173 1
e 172 174 1
e 172 175 1
e 173 174 1
e 173 175 1
e 173 176 1
e 174 175 1
e 174 176 1
e 174 177 1
e 174 580 1
e 174 376 1
e 174 462 1
e 175 176 1
e 175 177 1
e 175 178 1
e 175 470 1
e 175 539 1
e 175 416 1
e 176 177 1
e 176 178 1
e 176 179 1
e 176 573 1
e 177 178 1
e 177 179 1
e 177 180 1
e 177 256 1
e 178 179 1
e 178 180 1
e 178 181 1
e 178 552 1
e 178 457 1
e 178 583 1
e 179 180 1
e 179 181 1
e 179 182 1
e 179 212 1
e 179 235 1
e 179 338 1
e 179 415 1
e 180 181 1
e 180 182 1
e 180 183 1
e 180 499 1
e 181 182 1
e 181 183 1
e 181 184 1
e 181 207 1
e 182 183 1
e 182 184 1
e 182 185 1
e 182 539 1
e 183 184 1
e 183 185 1
e 183 186 1
e 183 353 1
e 184 185 1
e 184 186 1
e 184 187 1
e 184 272 1
e 184 375 1
e 185 186 1
e 185 187 1
e 185 188 1
e 186 187 1
e 186 188 1
e 186 189 1
e 187 188 1
e 187 189 1
e 187 190 1
e 187 482 1
e 188 189 1
e 188 190 1
e 188 191 1
e 188 488 1
e 188 389 1
e 189 190 1
e 189 191 1
e 189 192 1
e 189 307 1
e 190 191 1
e 190 192 1
e 190 193 1
e 191 192 1
e 191 193 1
e 191 194 1
e 191 526 1
e 191 512 1
e 192 193 1
e 192 194 1
e 192 195 1
e 193 194 1
e 193 195 1
e 193 196 1
e 193 531 1
e 193 279 1
e 193 540 1
e 194 195 1
e 194 196 1
e 194 197 1
e 194 255 1
e 195 196 1
e 195 197 1
e 195 198 1
e 196 197 1
e 196 198 1
e 196 199 1
e 196 297 1
e 197 198 1
e 197 199 1
e 197 200 1
e 197 238 1
e 197 465 1
e 197 271 1
e 198 199 1
e 198 200 1
e 198 201 1
e 199 200 1
e 199 201 1
e 199 202 1
e 199 308 1
e 199 408 1
e 199 599 1
e 200 201 1
e 200 202 1
e 200 203 1
e 200 345 1
e 200 435 1
e 200 350 1
e 201 202 1
e 201 203 1
e 201 204 1
e 201 452 1
e 201 409 1
e 202 203 1
e 202 204 1
e 202 205 1
e 202 512 1
e 203 204 1
e 203 205 1
e 203 206 1
e 203 224 1
e 203 260 1
e 204 205 1
e 204 206 1
e 204 207 1
e 204 492 1
e 204 274 1
e 204 362 1
e 204 510 1
e 205 206 1
e 205 207 1
e 205 208 1
e 205 335 1
e 205 428 1
e 206 207 1
e 206 208 1
e 206 209 1
e 206 304 1
e 207 208 1
e 207 209 1
e 207 210 1
e 207 553 1
e 208 209 1
e 208 210 1
e 208 211 1
e 209 210 1
e 209 211 1
e 209 212 1
e 210 211 1
e 210 212 1
e 210 213 1
e 210 426 1
e 211 212 1
e 211 213 1
e 211 214 1
e 212 213 1
e 212 214 1
e 212 215 1
e 212 381 1
e 212 407 1
e 213 214 1
e 213 215 1
e 213 216 1
e 214 215 1
e 214 216 1
e 214 217 1
e 215 216 1
e 215 217 1
e 215 218 1
e 215 357 1
e 215 430 1
e 215 464 1
e 216 217 1
e 216 218 1
e 216 219 1
e 216 411 1
e 217 218 1
e 217 219 1
e 217 220 1
e 217 324 1
e 217 555 1
e 218 219 1
e 218 220 1
e 218 221 1
e 218 458 1
e 218 314 1
e 219 220 1
e 219 221 1
e 219 222 1
e 220 221 1
e 220 222 1
e 220 223 1
e 221 222 1
e 221 223 1
e 221 224 1
e 222 223 1
e 222 224 1
e 222 225 1
e 223 224 1
e 223 225 1
e 223 226 1
e 223 478 1
e 223 328 1
e 224 225 1
e 224 226 1
e 224 227 1
e 224 415 1
e 225 226 1
e 225 227 1
e 225 228 1
e 225 438 1
e 225 489 1
e 226 227 1
e 226 228 1
e 226 229 1
e 226 247 1
e 227 228 1
e 227 229 1
e 227 230 1
e 227 427 1
e 228 229 1
e 228 230 1
e 228 231 1
e 228 374 1
e 228 582 1
e 229 230 1
e 229 231 1
e 229 232 1
e 230 231 1
e 230 232 1
e 230 233 1
e 230 524 1
e 230 489 1
e 231 232 1
e 231 233 1
e 231 234 1
e 232 233 1
e 232 234 1
e 232 235 1
e 232 361 1
e 233 234 1
e 233 235 1
e 233 236 1
e 234 235 1
e 234 236 1
e 234 237 1
e 234 338 1
e 235 236 1
e 235 237 1
e 235 238 1
e 235 533 1
e 236 237 1
e 236 238 1
e 236 239 1
e 237 238 1
e 237 239 1
e 237 240 1
e 238 239 1
e 238 240 1
e 238 241 1
e 238 456 1
e 239 240 1
e 239 241 1
e 239 242 1
e 239 429 1
e 239 493 1
e 240 241 1
e 240 242 1
e 240 243 1
e 241 242 1
e 241 243 1
e 241 244 1
e 241 250 1
e 242 243 1
e 242 244 1
e 242 245 1
e 242 466 1
e 243 244 1
e 243 245 1
e 243 246 1
e 244 245 1
e 244 246 1
e 244 247 1
e 244 341 1
e 245 246 1
e 245 247 1
e 245 248 1
e 245 534 1
e 245 258 1
e 246 247 1
e 246 248 1
e 246 249 1
e 246 312 1
e 246 380 1
e 246 283 1
e 247 248 1
e 247 249 1
e 247 250 1
e 247 292 1
e 248 249 1
e 248 250 1
e 248 251 1
e 249 250 1
e 249 251 1
e 249 252 1
e 249 503 1
e 250 251 1
e 250 252 1
e 250 253 1
e 250 353 1
e 250 472 1
e 251 252 1
e 251 253 1
e 251 254 1
e 251 446 1
e 251 587 1
e 252 253 1
e 252 254 1
e 252 255 1
e 252 271 1
e 253 254 1
e 253 255 1
e 253 256 1
e 254 255 1
e 254 256 1
e 254 257 1
e 254 453 1
e 255 256 1
e 255 257 1
e 255 258 1
e 255 269 1
e 255 389 1
e 255 353 1
e 256 257 1
e 256 258 1
e 256 259 1
e 256 455 1
e 257 258 1
e 257 259 1
e 257 260 1
e 257 275 1
e 258 259 1
e 258 260 1
e 258 261 1
e 258 287 1
e 259 260 1
e 259 261 1
e 259 262 1
e 260 261 1
e 260 262 1
e 260 263 1
e 261 262 1
e 261 263 1
e 261 264 1
e 261 568 1
e 261 591 1
e 262 263 1
e 262 264 1
e 262 265 1
e 262 339 1
e 263 264 1
e 263 265 1
e 263 266 1
e 263 513 1
e 263 466 1
e 263 546 1
e 264 265 1
e 264 266 1
e 264 267 1
e 265 266 1
e 265 267 1
e 265 268 1
e 265 393 1
e 266 267 1
e 266 268 1
e 266 269 1
e 267 268 1
e 267 269 1
e 267 270 1
e 267 484 1
e 267 295 1
e 268 269 1
e 268 270 1
e 268 271 1
e 268 453 1
e 268 398 1
e 268 447 1
e 269 270 1
e 269 271 1
e 269 272 1
e 269 315 1
e 270 271 1
e 270 272 1
e 270 273 1
e 271 272 1
e 271 273 1
e 271 274 1
e 272 273 1
e 272 274 1
e 272 275 1
e 273 274 1
e 273 275 1
e 273 276 1
e 274 275 1
e 274 276 1
e 274 277 1
e 274 496 1
e 275 276 1
e 275 277 1
e 275 278 1
e 276 277 1
e 276 278 1
e 276 279 1
e 276 584 1
e 277 278 1
e 277 279 1
e 277 280 1
e 277 296 1
e 277 429 1
e 278 279 1
e 278 280 1
e 278 281 1
e 278 490 1
e 279 280 1
e 279 281 1
e 279 282 1
e 279 558 1
e 279 305 1
e 280 281 1
e 280 282 1
e 280 283 1
e 281 282 1
e 281 283 1
e 281 284 1
e 281 547 1
e 282 283 1
e 282 284 1
e 282 285 1
e 282 455 1
e 283 284 1
e 283 285 1
e 283 286 1
e 284 285 1
e 284 286 1
e 284 287 1
e 284 295 1
e 284 321 1
e 285 286 1
e 285 287 1
e 285 288 1
e 286 287 1
e 286 288 1
e 286 289 1
e 286 418 1
e 287 288 1
e 287 289 1
e 287 290 1
e 288 289 1
e 288 290 1
e 288 291 1
e 289 290 1
e 289 291 1
e 289 292 1
e 289 294 1
e 290 291 1
e 290 292 1
e 290 293 1
e 290 404 1
e 290 449 1
e 290 329 1
e 291 292 1
e 291 293 1
e 291 294 1
e 291 428 1
e 292 293 1
e 292 294 1
e 292 295 1
e 293 294 1
e 293 295 1
e 293 296 1
e 293 515 1
e 293 316 1
e 294 295 1
e 294 296 1
e 294 297 1
e 294 410 1
e 295 296 1
e 295 297 1
e 295 298 1
e 296 297 1
e 296 298 1
e 296 299 1
e 296 529 1
e 297 298 1
e 297 299 1
e 297 300 1
e 297 385 1
e 298 299 1
e 298 300 1
e 298 301 1
e 299 300 1
e 299 301 1
e 299 302 1
e 299 479 1
e 300 301 1
e 300 302 1
e 300 303 1
e 300 486 1
e 300 496 1
e 301 302 1
e 301 303 1
e 301 304 1
e 302 303 1
e 302 304 1
e 302 305 1
e 302 415 1
e 303 304 1
e 303 305 1
e 303 306 1
e 303 501 1
e 304 305 1
e 304 306 1
e 304 307 1
e 304 399 1
e 304 390 1
e 305 306 1
e 305 307 1
e 305 308 1
e 305 349 1
e 306 307 1
e 306 308 1
e 306 309 1
e 306 518 1
e 306 312 1
e 307 308 1
e 307 309 1
e 307 310 1
e 308 309 1
e 308 310 1
e 308 311 1
e 308 380 1
e 308 476 1
e 309 310 1
e 309 311 1
e 309 312 1
e 310 311 1
e 310 312 1
e 310 313 1
e 311 312 1
e 311 313 1
e 311 314 1
e 312 313 1
e 312 314 1
e 312 315 1
e 313 314 1
e 313 315 1
e 313 316 1
e 313 498 1
e 313 550 1
e 313 554 1
e 314 315 1
e 314 316 1
e 314 317 1
e 314 499 1
e 314 350 1
e 314 452 1
e 315 316 1
e 315 317 1
e 315 318 1
e 315 561 1
e 316 317 1
e 316 318 1
e 316 319 1
e 316 352 1
e 317 318 1
e 317 319 1
e 317 320 1
e 317 370 1
e 317 535 1
e 318 319 1
e 318 320 1
e 318 321 1
e 319 320 1
e 319 321 1
e 319 322 1
e 319 423 1
e 320 321 1
e 320 322 1
e 320 323 1
e 320 548 1
e 321 322 1
e 321 323 1
e 321 324 1
e 322 323 1
e 322 324 1
e 322 325 1
e 323 324 1
e 323 325 1
e 323 326 1
e 323 517 1
e 324 325 1
e 324 326 1
e 324 327 1
e 324 371 1
e 325 326 1
e 325 327 1
e 325 328 1
e 325 407 1
e 325 556 1
e 326 327 1
e 326 328 1
e 326 329 1
e 326 364 1
e 326 544 1
e 327 328 1
e 327 329 1
e 327 330 1
e 328 329 1
e 328 330 1
e 328 331 1
e 329 330 1
e 329 331 1
e 329 332 1
e 330 331 1
e 330 332 1
e 330 333 1
e 330 414 1
e 331 332 1
e 331 333 1
e 331 334 1
e 332 333 1
e 332 334 1
e 332 335 1
e 333 334 1
e 333 335 1
e 333 336 1
e 333 494 1
e 334 335 1
e 334 336 1
e 334 337 1
e 334 510 1
e 334 490 1
e 335 336 1
e 335 337 1
e 335 338 1
e 335 371 1
e 336 337 1
e 336 338 1
e 336 339 1
e 336 549 1
e 337 338 1
e 337 339 1
e 337 340 1
e 337 460 1
e 338 339 1
e 338 340 1
e 338 341 1
e 338 578 1
e 339 340 1
e 339 341 1
e 339 342 1
e 340 341 1
e 340 342 1
e 340 343 1
e 341 342 1
e 341 343 1
e 341 344 1
e 342 343 1
e 342 344 1
e 342 345 1
e 342 412 1
e 343 344 1
e 343 345 1
e 343 346 1
e 344 345 1
e 344 346 1
e 344 347 1
e 345 346 1
e 345 347 1
e 345 348 1
e 346 347 1
e 346 348 1
e 346 349 1
e 347 348 1
e 347 349 1
e 347 350 1
e 348 349 1
e 348 350 1
e 348 351 1
e 348 531 1
e 348 386 1
e 349 350 1
e 349 351 1
e 349 352 1
e 349 402 1
e 350 351 1
e 350 352 1
e 350 353 1
e 351 352 1
e 351 353 1
e 351 354 1
e 351 416 1
e 352 353 1
e 352 354 1
e 352 355 1
e 352 479 1
e 353 354 1
e 353 355 1
e 353 356 1
e 353 501 1
e 354 355 1
e 354 356 1
e 354 357 1
e 354 528 1
e 354 558 1
e 355 356 1
e 355 357 1
e 355 358 1
e 355 524 1
e 356 357 1
e 356 358 1
e 356 359 1
e 357 358 1
e 357 359 1
e 357 360 1
e 357 439 1
e 358 359 1
e 358 360 1
e 358 361 1
e 358 434 1
e 359 360 1
e 359 361 1
e 359 362 1
e 360 361 1
e 360 362 1
e 360 363 1
e 361 362 1
e 361 363 1
e 361 364 1
e 362 363 1
e 362 364 1
e 362 365 1
e 362 377 1
e 363 364 1
e 363 365 1
e 363 366 1
e 363 439 1
e 363 560 1
e 364 365 1
e 364 366 1
e 364 367 1
e 365 366 1
e 365 367 1
e 365 368 1
e 366 367 1
e 366 368 1
e 366 369 1
e 367 368 1
e 367 369 1
e 367 370 1
e 368 369 1
e 368 370 1
e 368 371 1
e 369 370 1
e 369 371 1
e 369 372 1
e 369 440 1
e 369 445 1
e 370 371 1
e 370 372 1
e 370 373 1
e 370 420 1
e 371 372 1
e 371 373 1
e 371 374 1
e 372 373 1
e 372 374 1
e 372 375 1
e 373 374 1
e 373 375 1
e 373 376 1
e 374 375 1
e 374 376 1
e 374 377 1
e 375 376 1
e 375 377 1
e 375 378 1
e 375 487 1
e 376 377 1
e 376 378 1
e 376 379 1
e 377 378 1
e 377 379 1
e 377 380 1
e 378 379 1
e 378 380 1
e 378 381 1
e 379 380 1
e 379 381 1
e 379 382 1
e 379 409 1
e 380 381 1
e 380 382 1
e 380 383 1
e 381 382 1
e 381 383 1
e 381 384 1
e 381 491 1
e 381 554 1
e 382 383 1
e 382 384 1
e 382 385 1
e 382 554 1
e 383 384 1
e 383 385 1
e 383 386 1
e 384 385 1
e 384 386 1
e 384 387 1
e 385 386 1
e 385 387 1
e 385 388 1
e 386 387 1
e 386 388 1
e 386 389 1
e 386 408 1
e 387 388 1
e 387 389 1
e 387 390 1
e 387 460 1
e 387 407 1
e 388 389 1
e 388 390 1
e 388 391 1
e 388 472 1
e 389 390 1
e 389 391 1
e 389 392 1
e 389 551 1
e 390 391 1
e 390 392 1
e 390 393 1
e 391 392 1
e 391 393 1
e 391 394 1
e 392 393 1
e 392 394 1
e 392 395 1
e 393 394 1
e 393 395 1
e 393 396 1
e 393 533 1
e 394 395 1
e 394 396 1
e 394 397 1
e 395 396 1
e 395 397 1
e 395 398 1
e 395 415 1
e 396 397 1
e 396 398 1
e 396 399 1
e 396 487 1
e 397 398 1
e 397 399 1
e 397 400 1
e 397 500 1
e 398 399 1
e 398 400 1
e 398 401 1
e 398 550 1
e 399 400 1
e 399 401 1
e 399 402 1
e 399 503 1
e 399 473 1
e 400 401 1
e 400 402 1
e 400 403 1
e 401 402 1
e 401 403 1
e 401 404 1
e 401 542 1
e 402 403 1
e 402 404 1
e 402 405 1
e 403 404 1
e 403 405 1
e 403 406 1
e 404 405 1
e 404 406 1
e 404 407 1
e 405 406 1
e 405 407 1
e 405 408 1
e 406 407 1
e 406 408 1
e 406 409 1
e 406 573 1
e 406 490 1
e 406 500 1
e 407 408 1
e 407 409 1
e 407 410 1
e 408 409 1
e 408 410 1
e 408 411 1
e 409 410 1
e 409 411 1
e 409 412 1
e 410 411 1
e 410 412 1
e 410 413 1
e 410 485 1
e 411 412 1
e 411 413 1
e 411 414 1
e 412 413 1
e 412 414 1
e 412 415 1
e 412 495 1
e 413 414 1
e 413 415 1
e 413 416 1
e 413 483 1
e 414 415 1
e 414 416 1
e 414 417 1
e 415 416 1
e 415 417 1
e 415 418 1
e 415 538 1
e 416 417 1
e 416 418 1
e 416 419 1
e 416 587 1
e 417 418 1
e 417 419 1
e 417 420 1
e 418 419 1
e 418 420 1
e 418 421 1
e 418 473 1
e 419 420 1
e 419 421 1
e 419 422 1
e 419 580 1
e 420 421 1
e 420 422 1
e 420 423 1
e 421 422 1
e 421 423 1
e 421 424 1
e 422 423 1
e 422 424 1
e 422 425 1
e 422 505 1
e 423 424 1
e 423 425 1
e 423 426 1
e 423 471 1
e 424 425 1
e 424 426 1
e 424 427 1
e 425 426 1
e 425 427 1
e 425 428 1
e 425 596 1
e 425 585 1
e 425 566 1
e 426 427 1
e 426 428 1
e 426 429 1
e 427 428 1
e 427 429 1
e 427 430 1
e 427 432 1
e 428 429 1
e 428 430 1
e 428 431 1
e 429 430 1
e 429 431 1
e 429 432 1
e 429 537 1
e 430 431 1
e 430 432 1
e 430 433 1
e 430 509 1
e 431 432 1
e 431 433 1
e 431 434 1
e 432 433 1
e 432 434 1
e 432 435 1
e 433 434 1
e 433 435 1
e 433 436 1
e 434 435 1
e 434 436 1
e 434 437 1
e 435 436 1
e 435 437 1
e 435 438 1
e 435 598 1
e 435 449 1
e 436 437 1
e 436 438 1
e 436 439 1
e 437 438 1
e 437 439 1
e 437 440 1
e 438 439 1
e 438 440 1
e 438 441 1
e 438 524 1
e 438 543 1
e 439 440 1
e 439 441 1
e 439 442 1
e 440 441 1
e 440 442 1
e 440 443 1
e 440 536 1
e 441 442 1
e 441 443 1
e 441 444 1
e 441 466 1
e 442 443 1
e 442 444 1
e 442 445 1
e 443 444 1
e 443 445 1
e 443 446 1
e 444 445 1
e 444 446 1
e 444 447 1
e 444 461 1
e 444 460 1
e 445 446 1
e 445 447 1
e 445 448 1
e 446 447 1
e 446 448 1
e 446 449 1
e 446 539 1
e 447 448 1
e 447 449 1
e 447 450 1
e 448 449 1
e 448 450 1
e 448 451 1
e 449 450 1
e 449 451 1
e 449 452 1
e 450 451 1
e 450 452 1
e 450 453 1
e 450 492 1
e 451 452 1
e 451 453 1
e 451 454 1
e 451 494 1
e 452 453 1
e 452 454 1
e 452 455 1
e 453 454 1
e 453 455 1
e 453 456 1
e 454 455 1
e 454 456 1
e 454 457 1
e 455 456 1
e 455 457 1
e 455 458 1
e 456 457 1
e 456 458 1
e 456 459 1
e 456 488 1
e 456 461 1
e 457 458 1
e 457 459 1
e 457 460 1
e 458 459 1
e 458 460 1
e 458 461 1
e 459 460 1
e 459 461 1
e 459 462 1
e 459 495 1
e 460 461 1
e 460 462 1
e 460 463 1
e 461 462 1
e 461 463 1
e 461 464 1
e 462 463 1
e 462 464 1
e 462 465 1
e 463 464 1
e 463 465 1
e 463 466 1
e 464 465 1
e 464 466 1
e 464 467 1
e 465 466 1
e 465 467 1
e 465 468 1
e 466 467 1
e 466 468 1
e 466 469 1
e 467 468 1
e 467 469 1
e 467 470 1
e 468 469 1
e 468 470 1
e 468 471 1
e 468 507 1
e 469 470 1
e 469 471 1
e 469 472 1
e 469 541 1
e 470 471 1
e 470 472 1
e 470 473 1
e 471 472 1
e 471 473 1
e 471 474 1
e 471 569 1
e 472 473 1
e 472 474 1
e 472 475 1
e 473 474 1
e 473 475 1
e 473 476 1
e 474 475 1
e 474 476 1
e 474 477 1
e 474 570 1
e 475 476 1
e 475 477 1
e 475 478 1
e 476 477 1
e 476 478 1
e 476 479 1
e 477 478 1
e 477 479 1
e 477 480 1
e 478 479 1
e 478 480 1
e 478 481 1
e 479 480 1
e 479 481 1
e 479 482 1
e 479 577 1
e 480 481 1
e 480 482 1
e 480 483 1
e 481 482 1
e 481 483 1
e 481 484 1
e 482 483 1
e 482 484 1
e 482 485 1
e 483 484 1
e 483 485 1
e 483 486 1
e 484 485 1
e 484 486 1
e 484 487 1
e 485 486 1
e 485 487 1
e 485 488 1
e 486 487 1
e 486 488 1
e 486 489 1
e 487 488 1
e 487 489 1
e 487 490 1
e 488 489 1
e 488 490 1
e 488 491 1
e 488 520 1
e 489 490 1
e 489 491 1
e 489 492 1
e 490 491 1
e 490 492 1
e 490 493 1
e 491 492 1
e 491 493 1
e 491 494 1
e 491 561 1
e 491 508 1
e 492 493 1
e 492 494 1
e 492 495 1
e 493 494 1
e 493 495 1
e 493 496 1
e 494 495 1
e 494 496 1
e 494 497 1
e 495 496 1
e 495 497 1
e 495 498 1
e 496 497 1
e 496 498 1
e 496 499 1
e 497 498 1
e 497 499 1
e 497 500 1
e 497 552 1
e 498 499 1
e 498 500 1
e 498 501 1
e 499 500 1
e 499 501 1
e 499 502 1
e 500 501 1
e 500 502 1
e 500 503 1
e 500 574 1
e 501 502 1
e 501 503 1
e 501 504 1
e 502 503 1
e 502 504 1
e 502 505 1
e 503 504 1
e 503 505 1
e 503 506 1
e 503 566 1
e 504 505 1
e 504 506 1
e 504 507 1
e 505 506 1
e 505 507 1
e 505 508 1
e 506 507 1
e 506 508 1
e 506 509 1
e 507 508 1
e 507 509 1
e 507 510 1
e 507 534 1
e 508 509 1
e 508 510 1
e 508 511 1
e 509 510 1
e 509 511 1
e 509 512 1
e 510 511 1
e 510 512 1
e 510 513 1
e 511 512 1
e 511 513 1
e 511 514 1
e 512 513 1
e 512 514 1
e 512 515 1
e 512 519 1
e 513 514 1
e 513 515 1
e 513 516 1
e 513 526 1
e 514 515 1
e 514 516 1
e 514 517 1
e 515 516 1
e 515 517 1
e 515 518 1
e 516 517 1
e 516 518 1
e 516 519 1
e 516 530 1
e 517 518 1
e 517 519 1
e 517 520 1
e 518 519 1
e 518 520 1
e 518 521 1
e 519 520 1
e 519 521 1
e 519 522 1
e 520 521 1
e 520 522 1
e 520 523 1
e 521 522 1
e 521 523 1
e 521 524 1
e 522 523 1
e 522 524 1
e 522 525 1
e 523 524 1
e 523 525 1
e 523 526 1
e 524 525 1
e 524 526 1
e 524 527 1
e 525 526 1
e 525 527 1
e 525 528 1
e 526 527 1
e 526 528 1
e 526 529 1
e 527 528 1
e 527 529 1
e 527 530 1
e 528 529 1
e 528 530 1
e 528 531 1
e 528 538 1
e 529 530 1
e 529 531 1
e 529 532 1
e 530 531 1
e 530 532 1
e 530 533 1
e 531 532 1
e 531 533 1
e 531 534 1
e 532 533 1
e 532 534 1
e 532 535 1
e 533 534 1
e 533 535 1
e 533 536 1
e 534 535 1
e 534 536 1
e 534 537 1
e 535 536 1
e 535 537 1
e 535 538 1
e 536 537 1
e 536 538 1
e 536 539 1
e 537 538 1
e 537 539 1
e 537 540 1
e 538 539 1
e 538 540 1
e 538 541 1
e 539 540 1
e 539 541 1
e 539 542 1
e 540 541 1
e 540 542 1
e 540 543 1
e 541 542 1
e 541 543 1
e 541 544 1
e 542 543 1
e 542 544 1
e 542 545 1
e 542 562 1
e 543 544 1
e 543 545 1
e 543 546 1
e 544 545 1
e 544 546 1
e 544 547 1
e 545 546 1
e 545 547 1
e 545 548 1
e 546 547 1
e 546 548 1
e 546 549 1
e 547 548 1
e 547 549 1
e 547 550 1
e 547 582 1
e 548 549 1
e 548 550 1
e 548 551 1
e 548 576 1
e 549 550 1
e 549 551 1
e 549 552 1
e 550 551 1
e 550 552 1
e 550 553 1
e 551 552 1
e 551 553 1
e 551 554 1
e 552 553 1
e 552 554 1
e 552 555 1
e 553 554 1
e 553 555 1
e 553 556 1
e 554 555 1
e 554 556 1
e 554 557 1
e 555 556 1
e 555 557 1
e 555 558 1
e 556 557 1
e 556 558 1
e 556 559 1
e 557 558 1
e 557 559 1
e 557 560 1
e 557 599 1
e 558 559 1
e 558 560 1
e 558 561 1
e 558 588 1
e 559 560 1
e 559 561 1
e 559 562 1
e 560 561 1
e 560 562 1
e 560 563 1
e 561 562 1
e 561 563 1
e 561 564 1
e 562 563 1
e 562 564 1
e 562 565 1
e 563 564 1
e 563 565 1
e 563 566 1
e 564 565 1
e 564 566 1
e 564 567 1
e 565 566 1
e 565 567 1
e 565 568 1
e 565 584 1
e 566 567 1
e 566 568 1
e 566 569 1
e 567 568 1
e 567 569 1
e 567 570 1
e 567 581 1
e 568 569 1
e 568 570 1
e 568 571 1
e 569 570 1
e 569 571 1
e 569 572 1
e 570 571 1
e 570 572 1
e 570 573 1
e 571 572 1
e 571 573 1
e 571 574 1
e 572 573 1
e 572 574 1
e 572 575 1
e 572 596 1
e 573 574 1
e 573 575 1
e 573 576 1
e 574 575 1
e 574 576 1
e 574 577 1
e 575 576 1
e 575 577 1
e 575 578 1
e 576 577 1
e 576 578 1
e 576 579 1
e 577 578 1
e 577 579 1
e 577 580 1
e 578 579 1
e 578 580 1
e 578 581 1
e 579 580 1
e 579 581 1
e 579 582 1
e 580 581 1
e 580 582 1
e 580 583 1
e 581 582 1
e 581 583 1
e 581 584 1
e 582 583 1
e 582 584 1
e 582 585 1
e 583 584 1
e 583 585 1
e 583 586 1
e 584 585 1
e 584 586 1
e 584 587 1
e 585 586 1
e 585 587 1
e 585 588 1
e 586 587 1
e 586 588 1
e 586 589 1
e 587 588 1
e 587 589 1
e 587 590 1
e 588 589 1
e 588 590 1
e 588 591 1
e 589 590 1
e 589 591 1
e 589 592 1
e 590 591 1
e 590 592 1
e 590 593 1
e 591 592 1
e 591 593 1
e 591 594 1
e 592 593 1
e 592 594 1
e 592 595 1
e 593 594 1
e 593 595 1
e 593 596 1
e 594 595 1
e 594 596 1
e 594 597 1
e 595 596 1
e 595 597 1
e 595 598 1
e 596 597 1
e 596 598 1
e 596 599 1
e 597 598 1
e 597 599 1
e 597 600 1
e 598 599 1
e 598 600 1
e 599 600 1